; benchmark generated from python API
(set-info :status unknown)
(declare-fun x_months () (_ BitVec 32))
(declare-fun x_beta () (_ BitVec 32))
(declare-fun y_months () (_ BitVec 32))
(declare-fun y_beta () (_ BitVec 32))
(assert
 (bvsle (_ bv4294966096 32) x_months))
(assert
 (bvsge (_ bv1199 32) x_months))
(assert
 (bvsle (_ bv0 32) x_beta))
(assert
 (let ((?x12304 (bvadd x_months (_ bv24003 32))))
 (let ((?x65132 (bvsub ?x12304 (bvmul (bvsdiv (bvsub ?x12304 (_ bv1 32)) (_ bv12 32)) (_ bv12 32)))))
 (let ((?x30604 (ite (or (= ?x65132 (_ bv4 32)) (= ?x65132 (_ bv6 32)) (= ?x65132 (_ bv9 32)) (= ?x65132 (_ bv11 32))) (_ bv30 32) (_ bv31 32))))
 (let (($x80983 (and (= (bvsmod (bvsdiv (bvsub ?x12304 (_ bv1 32)) (_ bv12 32)) (_ bv4 32)) (_ bv0 32)) (and (distinct (bvsmod (bvsdiv (bvsub ?x12304 (_ bv1 32)) (_ bv12 32)) (_ bv100 32)) (_ bv0 32)) true))))
 (let ((?x59929 (ite (or $x80983 (= (bvsmod (bvsdiv (bvsub ?x12304 (_ bv1 32)) (_ bv12 32)) (_ bv400 32)) (_ bv0 32))) (_ bv29 32) (_ bv28 32))))
 (bvslt x_beta (ite (= ?x65132 (_ bv2 32)) ?x59929 ?x30604))))))))
(assert
 (bvsle (_ bv4294966096 32) y_months))
(assert
 (bvsge (_ bv1199 32) y_months))
(assert
 (bvsle (_ bv0 32) y_beta))
(assert
 (let ((?x24060 (bvadd y_months (_ bv24003 32))))
 (let ((?x21860 (bvsub ?x24060 (bvmul (bvsdiv (bvsub ?x24060 (_ bv1 32)) (_ bv12 32)) (_ bv12 32)))))
 (let ((?x57983 (ite (or (= ?x21860 (_ bv4 32)) (= ?x21860 (_ bv6 32)) (= ?x21860 (_ bv9 32)) (= ?x21860 (_ bv11 32))) (_ bv30 32) (_ bv31 32))))
 (let (($x62890 (and (= (bvsmod (bvsdiv (bvsub ?x24060 (_ bv1 32)) (_ bv12 32)) (_ bv4 32)) (_ bv0 32)) (and (distinct (bvsmod (bvsdiv (bvsub ?x24060 (_ bv1 32)) (_ bv12 32)) (_ bv100 32)) (_ bv0 32)) true))))
 (let ((?x89643 (ite (or $x62890 (= (bvsmod (bvsdiv (bvsub ?x24060 (_ bv1 32)) (_ bv12 32)) (_ bv400 32)) (_ bv0 32))) (_ bv29 32) (_ bv28 32))))
 (bvslt y_beta (ite (= ?x21860 (_ bv2 32)) ?x89643 ?x57983))))))))
(assert
 (and (= x_months (bvsub (bvadd (bvmul (_ bv2020 32) (_ bv12 32)) (_ bv2 32)) (_ bv24003 32))) (= (_ bv28 32) x_beta)))
(assert
 (let ((?x23457 (bvadd x_beta (_ bv1 32))))
 (let ((?x83275 (bvsdiv (bvsub (bvadd (bvadd x_months (_ bv12 32)) (_ bv24003 32)) (_ bv1 32)) (_ bv12 32))))
 (let ((?x44570 (bvadd (bvadd x_months (_ bv12 32)) (_ bv24003 32))))
 (let ((?x55262 (bvsub ?x44570 (bvmul ?x83275 (_ bv12 32)))))
 (let ((?x2328 (ite (or (= ?x55262 (_ bv4 32)) (= ?x55262 (_ bv6 32)) (= ?x55262 (_ bv9 32)) (= ?x55262 (_ bv11 32))) (_ bv30 32) (_ bv31 32))))
 (let (($x11671 (or (and (= (bvsmod ?x83275 (_ bv4 32)) (_ bv0 32)) (and (distinct (bvsmod ?x83275 (_ bv100 32)) (_ bv0 32)) true)) (= (bvsmod ?x83275 (_ bv400 32)) (_ bv0 32)))))
 (let ((?x77335 (ite (= ?x55262 (_ bv2 32)) (ite $x11671 (_ bv29 32) (_ bv28 32)) ?x2328)))
 (let ((?x43113 (ite (bvsgt (_ bv1 32) ?x23457) (_ bv1 32) (ite (bvsgt ?x23457 ?x77335) ?x77335 ?x23457))))
 (let ((?x27447 (ite (bvsgt (_ bv1 32) ?x43113) (_ bv1 32) (ite (bvsgt ?x43113 ?x77335) ?x77335 ?x43113))))
 (let ((?x73698 (ite (= (_ bv2 32) ?x55262) (ite $x11671 (_ bv31 32) (_ bv31 32)) (ite (= (_ bv1 32) ?x55262) (ite $x11671 (_ bv0 32) (_ bv0 32)) (_ bv0 32)))))
 (let ((?x67261 (ite (= (_ bv4 32) ?x55262) (ite $x11671 (_ bv91 32) (_ bv90 32)) (ite (= (_ bv3 32) ?x55262) (ite $x11671 (_ bv60 32) (_ bv59 32)) ?x73698))))
 (let ((?x4296 (ite (= (_ bv6 32) ?x55262) (ite $x11671 (_ bv152 32) (_ bv151 32)) (ite (= (_ bv5 32) ?x55262) (ite $x11671 (_ bv121 32) (_ bv120 32)) ?x67261))))
 (let ((?x77869 (ite (= (_ bv8 32) ?x55262) (ite $x11671 (_ bv213 32) (_ bv212 32)) (ite (= (_ bv7 32) ?x55262) (ite $x11671 (_ bv182 32) (_ bv181 32)) ?x4296))))
 (let ((?x47241 (ite (= (_ bv10 32) ?x55262) (ite $x11671 (_ bv274 32) (_ bv273 32)) (ite (= (_ bv9 32) ?x55262) (ite $x11671 (_ bv244 32) (_ bv243 32)) ?x77869))))
 (let ((?x17285 (ite (= (_ bv12 32) ?x55262) (ite $x11671 (_ bv335 32) (_ bv334 32)) (ite (= (_ bv11 32) ?x55262) (ite $x11671 (_ bv305 32) (_ bv304 32)) ?x47241))))
 (let ((?x87450 (bvadd (bvmul (_ bv365 32) (bvsub ?x83275 (_ bv1 32))) (bvsdiv (bvsub ?x83275 (_ bv1 32)) (_ bv4 32)))))
 (let ((?x55241 (bvadd (bvsub ?x87450 (bvsdiv (bvsub ?x83275 (_ bv1 32)) (_ bv100 32))) (bvsdiv (bvsub ?x83275 (_ bv1 32)) (_ bv400 32)))))
 (let ((?x67167 (bvadd (bvadd (bvsub (bvadd (bvadd ?x55241 ?x17285) (bvsub ?x27447 (_ bv1 32))) (_ bv730179 32)) (_ bv0 32)) (_ bv730179 32))))
 (let ((?x20318 (bvsmod ?x67167 (_ bv146097 32))))
 (let ((?x19383 (bvsdiv ?x20318 (_ bv36524 32))))
 (let ((?x14415 (ite (bvsle (_ bv4 32) ?x19383) (_ bv3 32) ?x19383)))
 (let ((?x79988 (bvsub ?x20318 (bvmul ?x14415 (_ bv36524 32)))))
 (let ((?x81422 (bvsmod ?x79988 (_ bv1461 32))))
 (let ((?x80899 (bvsdiv ?x81422 (_ bv365 32))))
 (let ((?x20777 (ite (bvsle (_ bv4 32) ?x80899) (_ bv3 32) ?x80899)))
 (let ((?x42725 (bvadd (bvadd (bvmul (bvsdiv ?x67167 (_ bv146097 32)) (_ bv400 32)) (bvmul ?x14415 (_ bv100 32))) (bvmul (bvsdiv ?x79988 (_ bv1461 32)) (_ bv4 32)))))
 (let ((?x30781 (bvadd (bvadd ?x42725 ?x20777) (_ bv1 32))))
 (let (($x16106 (or (and (= (bvsmod ?x30781 (_ bv4 32)) (_ bv0 32)) (and (distinct (bvsmod ?x30781 (_ bv100 32)) (_ bv0 32)) true)) (= (bvsmod ?x30781 (_ bv400 32)) (_ bv0 32)))))
 (let ((?x85434 (bvsub ?x81422 (bvmul ?x20777 (_ bv365 32)))))
 (let ((?x99682 (ite $x16106 (_ bv31 32) (_ bv31 32))))
 (let (($x94415 (bvsge ?x85434 ?x99682)))
 (let ((?x44090 (ite $x94415 (bvadd (bvsub ?x85434 ?x99682) (_ bv1 32)) (bvadd (bvsub ?x85434 (ite $x16106 (_ bv0 32) (_ bv0 32))) (_ bv1 32)))))
 (let ((?x43823 (ite $x16106 (_ bv60 32) (_ bv59 32))))
 (let (($x86302 (bvsge ?x85434 ?x43823)))
 (let ((?x59292 (ite $x16106 (_ bv91 32) (_ bv90 32))))
 (let (($x86300 (bvsge ?x85434 ?x59292)))
 (let ((?x14358 (ite $x86300 (bvadd (bvsub ?x85434 ?x59292) (_ bv1 32)) (ite $x86302 (bvadd (bvsub ?x85434 ?x43823) (_ bv1 32)) ?x44090))))
 (let ((?x733 (ite $x16106 (_ bv121 32) (_ bv120 32))))
 (let (($x16646 (bvsge ?x85434 ?x733)))
 (let ((?x81742 (ite $x16106 (_ bv152 32) (_ bv151 32))))
 (let (($x8727 (bvsge ?x85434 ?x81742)))
 (let ((?x99066 (ite $x8727 (bvadd (bvsub ?x85434 ?x81742) (_ bv1 32)) (ite $x16646 (bvadd (bvsub ?x85434 ?x733) (_ bv1 32)) ?x14358))))
 (let ((?x2977 (ite $x16106 (_ bv182 32) (_ bv181 32))))
 (let (($x18807 (bvsge ?x85434 ?x2977)))
 (let ((?x4570 (ite $x16106 (_ bv213 32) (_ bv212 32))))
 (let (($x9579 (bvsge ?x85434 ?x4570)))
 (let ((?x71120 (ite $x9579 (bvadd (bvsub ?x85434 ?x4570) (_ bv1 32)) (ite $x18807 (bvadd (bvsub ?x85434 ?x2977) (_ bv1 32)) ?x99066))))
 (let ((?x34328 (ite $x16106 (_ bv244 32) (_ bv243 32))))
 (let (($x96391 (bvsge ?x85434 ?x34328)))
 (let ((?x12888 (ite $x16106 (_ bv274 32) (_ bv273 32))))
 (let (($x40925 (bvsge ?x85434 ?x12888)))
 (let ((?x50636 (ite $x40925 (bvadd (bvsub ?x85434 ?x12888) (_ bv1 32)) (ite $x96391 (bvadd (bvsub ?x85434 ?x34328) (_ bv1 32)) ?x71120))))
 (let ((?x76628 (ite $x16106 (_ bv305 32) (_ bv304 32))))
 (let (($x42764 (bvsge ?x85434 ?x76628)))
 (let ((?x6794 (ite $x16106 (_ bv335 32) (_ bv334 32))))
 (let (($x64709 (bvsge ?x85434 ?x6794)))
 (let ((?x42712 (ite $x64709 (bvadd (bvsub ?x85434 ?x6794) (_ bv1 32)) (ite $x42764 (bvadd (bvsub ?x85434 ?x76628) (_ bv1 32)) ?x50636))))
 (let (($x11357 (= (_ bv0 32) (_ bv0 32))))
 (let ((?x80095 (ite $x8727 (_ bv6 32) (ite $x16646 (_ bv5 32) (ite $x86300 (_ bv4 32) (ite $x86302 (_ bv3 32) (ite $x94415 (_ bv2 32) (_ bv1 32))))))))
 (let ((?x58570 (ite $x42764 (_ bv11 32) (ite $x40925 (_ bv10 32) (ite $x96391 (_ bv9 32) (ite $x9579 (_ bv8 32) (ite $x18807 (_ bv7 32) ?x80095)))))))
 (let ((?x55721 (bvadd (bvmul (ite $x11357 ?x83275 ?x30781) (_ bv12 32)) (ite $x11357 ?x55262 (ite $x64709 (_ bv12 32) ?x58570)))))
 (and (= y_months (bvsub ?x55721 (_ bv24003 32))) (= y_beta (bvsub (ite $x11357 ?x27447 ?x42712) (_ bv1 32))))))))))))))))))))))))))))))))))))))))))))))))))))))))))))))))))
(assert
 (let (($x28440 (and (= y_months (bvsub (bvadd (bvmul (_ bv2021 32) (_ bv12 32)) (_ bv2 32)) (_ bv24003 32))) (= (_ bv27 32) y_beta))))
(not $x28440)))
(check-sat)
